NAME : a25
COMMENT : drilling problem (Ludwig)
TYPE : TSP
DIMENSION: 25
EDGE_WEIGHT_TYPE : EUC_2D
NODE_COORD_SECTION

Path: 
1	5	6	7	8	10	11	12	13	14	24	23	25	22	21	20	19	18	17	16	15	9	4	3	2	1	
Dist: 358.765
Execution time: 91089(ms)
TSP algorithm time: 91088(ms)
	Command being timed: "./Held-Karp_algorithm ../dataset/a25.tsp"
	User time (seconds): 97.90
	System time (seconds): 28.25
	Percent of CPU this job got: 99%
	Elapsed (wall clock) time (h:mm:ss or m:ss): 2:06.17
	Average shared text size (kbytes): 0
	Average unshared data size (kbytes): 0
	Average stack size (kbytes): 0
	Average total size (kbytes): 0
	Maximum resident set size (kbytes): 3934796
	Average resident set size (kbytes): 0
	Major (requiring I/O) page faults: 8
	Minor (reclaiming a frame) page faults: 919316
	Voluntary context switches: 10
	Involuntary context switches: 255
	Swaps: 0
	File system inputs: 1632
	File system outputs: 16
	Socket messages sent: 0
	Socket messages received: 0
	Signals delivered: 0
	Page size (bytes): 4096
	Exit status: 0
